  9	64
 16
  0	 42	 23	 64	  8	106	 87	 72	128	 11	 10	 14	 75	 74	 78	129	
  8
  0	 38	 36	  5	 69	102	100	129	
 12
  0	 55	 33	 18	 12	 31	 97	119	 95	 76	 82	129	
 14
  0	 21	 40	 58	 85	 27	 91	104	 52	122	 43	107	116	129	
 16
  0	 63	 35	 39	 37	 99	103	 45	127	 61	101	 30	 94	109	125	129	
 14
  0	 54	 17	 26	 28	118	 47	111	 92	 20	 90	 81	 84	129	
 28
  0	 57	 56	  4	121	 50	 60	114	 68	124	120	 41	 16	 62	105	 22	 80	 15	 86	126	 32	 29	 79	  9	 73	 93	 96	129	
 16
  0	  1	 51	  3	 44	115	 67	 65	108	  7	 24	 59	 71	 88	123	129	
 22
  0	 49	 48	 46	 19	 13	 34	113	110	  2	 66	 77	 25	  6	 70	 98	 83	112	 89	 53	117	129	
